\ Model MDSP
\ LP format - for model browsing. Use MPS format to capture full model detail.
Minimize
  x[0] + x[1] + x[2] + x[3] + x[4] + x[5] + x[6] + x[7] + x[8] + x[9]
   + x[10] + x[11] + x[12] + x[13] + x[14] + x[15] + x[16] + x[17] + x[18]
   + x[19] + x[20] + x[21] + x[22] + x[23] + x[24] + x[25] + x[26] + x[27]
   + x[28] + x[29] + x[30] + x[31] + x[32] + x[33]
Subject To
 R0: x[0] + x[1] + x[2] + x[3] + x[4] + x[5] + x[6] + x[7] + x[8] + x[10]
   + x[11] + x[12] + x[13] + x[17] + x[19] + x[21] + x[31] >= 1
 R1: x[0] + x[1] + x[2] + x[3] + x[7] + x[13] + x[17] + x[19] + x[21]
   + x[30] >= 1
 R2: x[0] + x[1] + x[2] + x[3] + x[7] + x[8] + x[9] + x[13] + x[27] + x[28]
   + x[32] >= 1
 R3: x[0] + x[1] + x[2] + x[3] + x[7] + x[12] + x[13] >= 1
 R4: x[0] + x[4] + x[6] + x[10] >= 1
 R5: x[0] + x[5] + x[6] + x[10] + x[16] >= 1
 R6: x[0] + x[4] + x[5] + x[6] + x[16] >= 1
 R7: x[0] + x[1] + x[2] + x[3] + x[7] >= 1
 R8: x[0] + x[2] + x[8] + x[30] + x[32] + x[33] >= 1
 R9: x[2] + x[9] + x[33] >= 1
 R10: x[0] + x[4] + x[5] + x[10] >= 1
 R11: x[0] + x[11] >= 1
 R12: x[0] + x[3] + x[12] >= 1
 R13: x[0] + x[1] + x[2] + x[3] + x[13] + x[33] >= 1
 R14: x[14] + x[32] + x[33] >= 1
 R15: x[15] + x[32] + x[33] >= 1
 R16: x[5] + x[6] + x[16] >= 1
 R17: x[0] + x[1] + x[17] >= 1
 R18: x[18] + x[32] + x[33] >= 1
 R19: x[0] + x[1] + x[19] + x[33] >= 1
 R20: x[20] + x[32] + x[33] >= 1
 R21: x[0] + x[1] + x[21] >= 1
 R22: x[22] + x[32] + x[33] >= 1
 R23: x[23] + x[25] + x[27] + x[29] + x[32] + x[33] >= 1
 R24: x[24] + x[25] + x[27] + x[31] >= 1
 R25: x[23] + x[24] + x[25] + x[31] >= 1
 R26: x[26] + x[29] + x[33] >= 1
 R27: x[2] + x[23] + x[24] + x[27] + x[33] >= 1
 R28: x[2] + x[28] + x[31] + x[33] >= 1
 R29: x[23] + x[26] + x[29] + x[32] + x[33] >= 1
 R30: x[1] + x[8] + x[30] + x[32] + x[33] >= 1
 R31: x[0] + x[24] + x[25] + x[28] + x[31] + x[32] + x[33] >= 1
 R32: x[2] + x[8] + x[14] + x[15] + x[18] + x[20] + x[22] + x[23] + x[29]
   + x[30] + x[31] + x[32] + x[33] >= 1
 R33: x[8] + x[9] + x[13] + x[14] + x[15] + x[18] + x[19] + x[20] + x[22]
   + x[23] + x[26] + x[27] + x[28] + x[29] + x[30] + x[31] + x[32] + x[33]
   >= 1
Bounds
Binaries
 x[0] x[1] x[2] x[3] x[4] x[5] x[6] x[7] x[8] x[9] x[10] x[11] x[12] x[13]
 x[14] x[15] x[16] x[17] x[18] x[19] x[20] x[21] x[22] x[23] x[24] x[25]
 x[26] x[27] x[28] x[29] x[30] x[31] x[32] x[33]
End
